500
1000
266
266
266
266
266
263
262
262
262
262
261
261
261
261
261
260
260
260
260
259
258
258
258
257
257
257
257
256
256
255
255
254
254
253
253
252
252
251
251
251
251
250
250
249
249
249
248
248
247
247
247
246
245
245
243
243
242
241
240
240
239
238
238
238
237
237
237
236
236
235
235
235
234
234
233
233
233
233
233
232
232
231
231
230
230
228
228
228
228
227
226
226
226
225
225
224
224
223
223
221
221
221
220
220
220
220
218
218
217
217
216
215
215
215
215
214
214
214
213
213
213
213
211
211
211
211
210
210
210
209
209
207
206
205
204
203
203
203
202
201
201
201
200
200
200
199
198
197
195
195
195
195
194
194
193
193
192
192
191
191
190
189
189
189
188
188
186
186
186
186
185
184
183
182
182
181
180
179
178
177
177
176
175
175
175
175
174
174
174
173
173
172
172
171
171
171
171
169
169
167
167
166
165
165
165
165
164
164
163
162
162
161
161
161
160
160
159
159
158
158
157
156
156
156
156
156
156
155
154
154
154
154
153
152
152
151
151
151
151
151
150
150
150
150
149
149
149
147
147
147
146
145
145
144
144
143
142
142
142
141
141
141
140
137
136
136
134
134
134
133
132
132
132
130
130
129
129
129
128
128
127
127
127
126
125
125
124
123
123
123
123
122
122
121
120
120
119
119
118
118
118
118
115
115
114
114
114
113
112
112
111
111
110
110
110
110
109
109
108
108
108
107
105
104
104
104
103
103
102
102
102
102
102
102
101
101
101
101
100
99
99
99
98
98
98
97
96
95
95
95
94
94
93
92
92
91
91
91
91
91
90
90
89
89
88
87
87
87
86
86
85
84
84
83
82
82
81
81
81
81
80
80
79
78
78
78
78
77
77
76
76
75
74
74
74
73
71
71
71
71
71
70
70
69
68
68
67
66
66
65
65
64
64
64
63
63
61
61
61
61
60
59
58
58
58
57
57
56
54
54
54
53
52
52
52
51
51
50
50
49
48
48
48
47
47
47
46
46
44
44
44
43
42
42
41
40
38
38
38
38
37
36
36
36
36
35
35
35
34
32
31
31
28
27
27
27
27
26
26
25
25
25
25
24
24
23
23
23
23
22
22
21
21
20
19
19
19
19
19
17
